29
83 
76 
109 
34 
65 
96 
5 
4 
1 
6 
2 
17 61 111 
40 50 
10 68 
25 90 105 
73 101 121 
20 41 56 
54 57 
16 18 62 88 107 
51 72 85 99 
30 63 87 92 
9 114 118 120 122 
13 14 19 21 22 24 27 28 29 32 33 35 36 37 38 42 43 44 45 49 58 59 64 66 69 70 71 77 78 79 80 82 84 86 93 95 97 98 102 103 104 106 108 112 113 115 117 119 123 
0 
3 
8 12 47 52 60 94 
23 53 55 67 91 116 
7 11 26 31 39 46 74 89 124 
15 48 75 81 100 110 
